9122
0 1 1 1 0 1 1 1 0 1 1 0 1 0 0 0 0 0 0 0 0 0 0 0 0 0 0 0 0 0 
1 1 1 2 1 2 2 2 3 5 3 5 3 6 6 6 7 7 7 7 7 7 9 10 9 10 10 12 12 12 15 12 13 15 15 15 16 16 17 16 17 16 18 19 18 19 18 19 22 18 23 18 1 22 23 23 22 25 26 26 25 26 25 26 28 28 28 28 28 28 
